4670
3018
3882
7535
5905
3190
7354
9186
9934
3363
4155
3993
7572
7770
466
1901
3355
9981
603
9030
9054
1578
6536
410
9149
9909
9601
9126
9689
1590
7992
6927
9397
6015
8369
8014
3622
7047
9860
2823
1084
1663
4828
3823
2611
604
1664
5904
1484
6047
